(set-logic ALL)
(declare-const k Int)(declare-const x (_ BitVec k))
(declare-const s (_ BitVec k))
(declare-const t (_ BitVec k))
(define-fun lemma_UREM_REF3 ((x (_ BitVec k)) (s (_ BitVec k)) (t (_ BitVec k))) Bool (=> (= s (_ bv0 k)) (= t x)))
(assert (not (and (= t (bvurem x s)) (not (lemma_UREM_REF3 x s t)))))
(check-sat)
